RLT01
Position Depot: Random
Horizon for Depot: Large
Position of customers: Random
Distribution of the demand: Small
Width of time windows: Tight
Distribution of the service: Large

VEHICLE 
NUMBER 	 CAPACITY 
 14 	 	 51 
 
CUSTOMER
CUST NO. 	 XCOORD.  	 YCOORD. 	 DEMAND 	 READY TIME 	 DUE DATE 	 SERVICE TIME 
 0 	 	 441 	 	 585 	 	 0 	 	 0 	 	 3959 	 	 0 
  1 	 	 965 	 	 914 	 	 6 	 	 703 	 	 779 	 	 145 
  2 	 	 879 	 	 189 	 	 10 	 	 3492 	 	 3668 	 	 178 
  3 	 	 81 	 	 467 	 	 8 	 	 862 	 	 928 	 	 108 
  4 	 	 681 	 	 649 	 	 7 	 	 1269 	 	 1419 	 	 147 
  5 	 	 595 	 	 334 	 	 8 	 	 2082 	 	 2150 	 	 124 
  6 	 	 914 	 	 421 	 	 7 	 	 2068 	 	 2245 	 	 144 
  7 	 	 709 	 	 122 	 	 8 	 	 1322 	 	 1374 	 	 128 
  8 	 	 976 	 	 311 	 	 8 	 	 2693 	 	 2778 	 	 124 
  9 	 	 284 	 	 722 	 	 9 	 	 2492 	 	 2553 	 	 120 
  10 	 	 863 	 	 593 	 	 7 	 	 386 	 	 464 	 	 134 
  11 	 	 653 	 	 603 	 	 5 	 	 3792 	 	 3888 	 	 190 
  12 	 	 655 	 	 571 	 	 8 	 	 2277 	 	 2390 	 	 159 
  13 	 	 441 	 	 55 	 	 6 	 	 1947 	 	 2089 	 	 164 
  14 	 	 298 	 	 762 	 	 8 	 	 3661 	 	 3733 	 	 172 
  15 	 	 447 	 	 132 	 	 10 	 	 2763 	 	 2943 	 	 129 
  16 	 	 438 	 	 498 	 	 5 	 	 2348 	 	 2490 	 	 168 
  17 	 	 533 	 	 189 	 	 5 	 	 2841 	 	 2943 	 	 124 
  18 	 	 19 	 	 355 	 	 6 	 	 886 	 	 1070 	 	 167 
  19 	 	 665 	 	 420 	 	 9 	 	 1653 	 	 1745 	 	 200 
  20 	 	 240 	 	 0 	 	 6 	 	 3775 	 	 3955 	 	 168 
  21 	 	 986 	 	 58 	 	 10 	 	 643 	 	 833 	 	 111 
  22 	 	 817 	 	 25 	 	 6 	 	 2171 	 	 2289 	 	 129 
  23 	 	 369 	 	 340 	 	 10 	 	 527 	 	 601 	 	 132 
  24 	 	 899 	 	 995 	 	 8 	 	 1426 	 	 1486 	 	 170 
  25 	 	 63 	 	 874 	 	 10 	 	 1847 	 	 1906 	 	 193 
  26 	 	 651 	 	 322 	 	 7 	 	 3744 	 	 3870 	 	 186 
  27 	 	 978 	 	 759 	 	 8 	 	 1182 	 	 1330 	 	 161 
  28 	 	 301 	 	 688 	 	 5 	 	 2370 	 	 2422 	 	 191 
  29 	 	 108 	 	 434 	 	 5 	 	 813 	 	 894 	 	 180 
  30 	 	 9 	 	 251 	 	 8 	 	 3707 	 	 3775 	 	 127 
  31 	 	 991 	 	 349 	 	 6 	 	 3660 	 	 3785 	 	 136 
  32 	 	 883 	 	 476 	 	 8 	 	 2756 	 	 2948 	 	 173 
  33 	 	 731 	 	 521 	 	 6 	 	 2765 	 	 2933 	 	 148 
  34 	 	 85 	 	 751 	 	 5 	 	 305 	 	 432 	 	 192 
  35 	 	 636 	 	 460 	 	 6 	 	 2887 	 	 3012 	 	 153 
  36 	 	 189 	 	 657 	 	 9 	 	 3706 	 	 3857 	 	 148 
  37 	 	 864 	 	 872 	 	 10 	 	 1843 	 	 1949 	 	 131 
  38 	 	 943 	 	 505 	 	 5 	 	 1139 	 	 1257 	 	 160 
  39 	 	 505 	 	 916 	 	 7 	 	 3051 	 	 3129 	 	 175 
  40 	 	 739 	 	 709 	 	 10 	 	 3032 	 	 3112 	 	 127 
  41 	 	 705 	 	 457 	 	 8 	 	 801 	 	 958 	 	 107 
  42 	 	 963 	 	 746 	 	 6 	 	 3043 	 	 3191 	 	 154 
  43 	 	 382 	 	 538 	 	 6 	 	 3242 	 	 3309 	 	 165 
  44 	 	 729 	 	 163 	 	 5 	 	 2332 	 	 2436 	 	 197 
  45 	 	 514 	 	 556 	 	 10 	 	 1840 	 	 1969 	 	 138 
  46 	 	 486 	 	 137 	 	 5 	 	 2814 	 	 2979 	 	 155 
  47 	 	 684 	 	 690 	 	 9 	 	 1332 	 	 1493 	 	 191 
  48 	 	 372 	 	 876 	 	 6 	 	 3084 	 	 3203 	 	 126 
  49 	 	 684 	 	 472 	 	 9 	 	 3569 	 	 3740 	 	 134 
  50 	 	 703 	 	 638 	 	 8 	 	 1105 	 	 1225 	 	 156 
  51 	 	 67 	 	 113 	 	 7 	 	 1771 	 	 1894 	 	 166 
  52 	 	 840 	 	 911 	 	 6 	 	 2019 	 	 2150 	 	 131 
  53 	 	 158 	 	 160 	 	 7 	 	 2843 	 	 2956 	 	 152 
  54 	 	 863 	 	 30 	 	 10 	 	 1682 	 	 1833 	 	 128 
  55 	 	 139 	 	 73 	 	 5 	 	 591 	 	 760 	 	 177 
  56 	 	 744 	 	 388 	 	 6 	 	 1121 	 	 1271 	 	 134 
  57 	 	 8 	 	 290 	 	 6 	 	 416 	 	 576 	 	 136 
  58 	 	 756 	 	 686 	 	 7 	 	 2741 	 	 2898 	 	 170 
  59 	 	 62 	 	 678 	 	 10 	 	 2749 	 	 2837 	 	 112 
  60 	 	 917 	 	 791 	 	 6 	 	 2036 	 	 2210 	 	 155 
  61 	 	 113 	 	 948 	 	 5 	 	 1403 	 	 1534 	 	 139 
  62 	 	 36 	 	 313 	 	 8 	 	 398 	 	 536 	 	 136 
  63 	 	 572 	 	 642 	 	 6 	 	 1019 	 	 1139 	 	 121 
  64 	 	 941 	 	 293 	 	 9 	 	 1289 	 	 1481 	 	 111 
  65 	 	 917 	 	 712 	 	 5 	 	 485 	 	 568 	 	 149 
  66 	 	 330 	 	 347 	 	 8 	 	 623 	 	 747 	 	 103 
  67 	 	 772 	 	 991 	 	 7 	 	 387 	 	 576 	 	 181 
  68 	 	 627 	 	 582 	 	 5 	 	 1627 	 	 1815 	 	 159 
  69 	 	 835 	 	 788 	 	 5 	 	 3217 	 	 3397 	 	 149 
  70 	 	 108 	 	 127 	 	 9 	 	 2305 	 	 2359 	 	 149 
  71 	 	 91 	 	 511 	 	 6 	 	 1349 	 	 1548 	 	 104 
  72 	 	 847 	 	 419 	 	 8 	 	 3461 	 	 3649 	 	 140 
  73 	 	 193 	 	 8 	 	 6 	 	 1847 	 	 2017 	 	 132 
  74 	 	 442 	 	 646 	 	 9 	 	 334 	 	 490 	 	 157 
  75 	 	 564 	 	 528 	 	 7 	 	 3173 	 	 3246 	 	 106 
  76 	 	 920 	 	 910 	 	 8 	 	 560 	 	 699 	 	 199 
  77 	 	 911 	 	 852 	 	 6 	 	 428 	 	 594 	 	 146 
  78 	 	 113 	 	 606 	 	 9 	 	 1318 	 	 1393 	 	 126 
  79 	 	 616 	 	 325 	 	 6 	 	 3522 	 	 3613 	 	 142 
  80 	 	 789 	 	 83 	 	 6 	 	 2996 	 	 3121 	 	 171 
  81 	 	 597 	 	 975 	 	 5 	 	 1912 	 	 2106 	 	 159 
  82 	 	 833 	 	 512 	 	 8 	 	 1509 	 	 1652 	 	 166 
  83 	 	 788 	 	 652 	 	 9 	 	 1898 	 	 1992 	 	 186 
  84 	 	 955 	 	 848 	 	 6 	 	 541 	 	 635 	 	 139 
  85 	 	 181 	 	 667 	 	 10 	 	 562 	 	 665 	 	 199 
  86 	 	 137 	 	 710 	 	 6 	 	 3683 	 	 3850 	 	 117 
  87 	 	 86 	 	 927 	 	 8 	 	 1979 	 	 2169 	 	 149 
  88 	 	 403 	 	 625 	 	 10 	 	 2982 	 	 3140 	 	 169 
  89 	 	 979 	 	 661 	 	 9 	 	 2710 	 	 2871 	 	 160 
  90 	 	 286 	 	 488 	 	 6 	 	 2695 	 	 2795 	 	 148 
  91 	 	 36 	 	 976 	 	 7 	 	 2455 	 	 2540 	 	 156 
  92 	 	 222 	 	 158 	 	 8 	 	 1778 	 	 1843 	 	 144 
  93 	 	 725 	 	 231 	 	 10 	 	 577 	 	 700 	 	 175 
  94 	 	 793 	 	 696 	 	 9 	 	 3602 	 	 3777 	 	 142 
  95 	 	 156 	 	 817 	 	 9 	 	 2568 	 	 2634 	 	 184 
  96 	 	 843 	 	 632 	 	 8 	 	 3664 	 	 3732 	 	 109 
  97 	 	 0 	 	 876 	 	 5 	 	 2693 	 	 2762 	 	 111 
  98 	 	 898 	 	 881 	 	 6 	 	 2189 	 	 2303 	 	 107 
  99 	 	 213 	 	 878 	 	 8 	 	 1322 	 	 1443 	 	 184 
  100 	 	 924 	 	 363 	 	 6 	 	 3337 	 	 3427 	 	 152 
 